results/x-long/X-n162-k11.vrp_seed-35.vrp.sol
Route #1: 29 10 105 144 119 141 115 156 59
Route #2: 127 17 149 89 14 1 55 60 21 9 27 117 97 77 161
Route #3: 79 20 67 62 114 95 129 88 106 100 31 140 154 111 80
Route #4: 155 92 125 93 132 87 4 101 151 146 39 137 108 158 91 136
Route #5: 103 40 112 157 30 118 82 2 109 148 134 124 128 110 153 143
Route #6: 54 76 41 61 46 69 65 70 113 63 104 83 98 47 25
Route #7: 78 22 34 7 44 75 33 3 19 18 64 12 51 42 8
Route #8: 52 116 102 96 142 43 123 56 66 94 36 35 99 130 86 53
Route #9: 50 45 152 28 26 48 11 73 38 58 68 145 90 150
Route #10: 23 24 49 6 13 71 37 131 57 32 16 5 120 81 74
Route #11: 15 139 126 138 133 107 122 84 160 85 121 147 159 135 72
Cost 14147.000000